NAME : hypercube_07.hcp
COMMENT : Hamiltonian cycle problem (Hypercubes)
TYPE : HCP
DIMENSION :      128
EDGE_DATA_FORMAT : EDGE_LIST
EDGE_DATA_SECTION
     128     127
     128     126
     128     124
     128     120
     128     112
     128      96
     128      64
     127     125
     127     123
     127     119
     127     111
     127      95
     127      63
     126     125
     126     122
     126     118
     126     110
     126      94
     126      62
     125     121
     125     117
     125     109
     125      93
     125      61
     124     123
     124     122
     124     116
     124     108
     124      92
     124      60
     123     121
     123     115
     123     107
     123      91
     123      59
     122     121
     122     114
     122     106
     122      90
     122      58
     121     113
     121     105
     121      89
     121      57
     120     119
     120     118
     120     116
     120     104
     120      88
     120      56
     119     117
     119     115
     119     103
     119      87
     119      55
     118     117
     118     114
     118     102
     118      86
     118      54
     117     113
     117     101
     117      85
     117      53
     116     115
     116     114
     116     100
     116      84
     116      52
     115     113
     115      99
     115      83
     115      51
     114     113
     114      98
     114      82
     114      50
     113      97
     113      81
     113      49
     112     111
     112     110
     112     108
     112     104
     112      80
     112      48
     111     109
     111     107
     111     103
     111      79
     111      47
     110     109
     110     106
     110     102
     110      78
     110      46
     109     105
     109     101
     109      77
     109      45
     108     107
     108     106
     108     100
     108      76
     108      44
     107     105
     107      99
     107      75
     107      43
     106     105
     106      98
     106      74
     106      42
     105      97
     105      73
     105      41
     104     103
     104     102
     104     100
     104      72
     104      40
     103     101
     103      99
     103      71
     103      39
     102     101
     102      98
     102      70
     102      38
     101      97
     101      69
     101      37
     100      99
     100      98
     100      68
     100      36
      99      97
      99      67
      99      35
      98      97
      98      66
      98      34
      97      65
      97      33
      96      95
      96      94
      96      92
      96      88
      96      80
      96      32
      95      93
      95      91
      95      87
      95      79
      95      31
      94      93
      94      90
      94      86
      94      78
      94      30
      93      89
      93      85
      93      77
      93      29
      92      91
      92      90
      92      84
      92      76
      92      28
      91      89
      91      83
      91      75
      91      27
      90      89
      90      82
      90      74
      90      26
      89      81
      89      73
      89      25
      88      87
      88      86
      88      84
      88      72
      88      24
      87      85
      87      83
      87      71
      87      23
      86      85
      86      82
      86      70
      86      22
      85      81
      85      69
      85      21
      84      83
      84      82
      84      68
      84      20
      83      81
      83      67
      83      19
      82      81
      82      66
      82      18
      81      65
      81      17
      80      79
      80      78
      80      76
      80      72
      80      16
      79      77
      79      75
      79      71
      79      15
      78      77
      78      74
      78      70
      78      14
      77      73
      77      69
      77      13
      76      75
      76      74
      76      68
      76      12
      75      73
      75      67
      75      11
      74      73
      74      66
      74      10
      73      65
      73       9
      72      71
      72      70
      72      68
      72       8
      71      69
      71      67
      71       7
      70      69
      70      66
      70       6
      69      65
      69       5
      68      67
      68      66
      68       4
      67      65
      67       3
      66      65
      66       2
      65       1
      64      63
      64      62
      64      60
      64      56
      64      48
      64      32
      63      61
      63      59
      63      55
      63      47
      63      31
      62      61
      62      58
      62      54
      62      46
      62      30
      61      57
      61      53
      61      45
      61      29
      60      59
      60      58
      60      52
      60      44
      60      28
      59      57
      59      51
      59      43
      59      27
      58      57
      58      50
      58      42
      58      26
      57      49
      57      41
      57      25
      56      55
      56      54
      56      52
      56      40
      56      24
      55      53
      55      51
      55      39
      55      23
      54      53
      54      50
      54      38
      54      22
      53      49
      53      37
      53      21
      52      51
      52      50
      52      36
      52      20
      51      49
      51      35
      51      19
      50      49
      50      34
      50      18
      49      33
      49      17
      48      47
      48      46
      48      44
      48      40
      48      16
      47      45
      47      43
      47      39
      47      15
      46      45
      46      42
      46      38
      46      14
      45      41
      45      37
      45      13
      44      43
      44      42
      44      36
      44      12
      43      41
      43      35
      43      11
      42      41
      42      34
      42      10
      41      33
      41       9
      40      39
      40      38
      40      36
      40       8
      39      37
      39      35
      39       7
      38      37
      38      34
      38       6
      37      33
      37       5
      36      35
      36      34
      36       4
      35      33
      35       3
      34      33
      34       2
      33       1
      32      31
      32      30
      32      28
      32      24
      32      16
      31      29
      31      27
      31      23
      31      15
      30      29
      30      26
      30      22
      30      14
      29      25
      29      21
      29      13
      28      27
      28      26
      28      20
      28      12
      27      25
      27      19
      27      11
      26      25
      26      18
      26      10
      25      17
      25       9
      24      23
      24      22
      24      20
      24       8
      23      21
      23      19
      23       7
      22      21
      22      18
      22       6
      21      17
      21       5
      20      19
      20      18
      20       4
      19      17
      19       3
      18      17
      18       2
      17       1
      16      15
      16      14
      16      12
      16       8
      15      13
      15      11
      15       7
      14      13
      14      10
      14       6
      13       9
      13       5
      12      11
      12      10
      12       4
      11       9
      11       3
      10       9
      10       2
       9       1
       8       7
       8       6
       8       4
       7       5
       7       3
       6       5
       6       2
       5       1
       4       3
       4       2
       3       1
       2       1
-1